asdf
   1.000
    3.080    0.00    0.00
    1.540  2.6673582437  0.0
    0.0 0.0  3.51736
   Mg B
    1 2
Cartesian
    0.000000    0.000000    0.000000
    1.540000    0.889119    1.758680
   -0.000000    1.778239    1.758680
