 asdf
 1.0000
   27.7200000000000       0.000000000000000E+000  0.000000000000000E+000
   1.54000000000000        2.66735824370000       0.000000000000000E+000
  0.000000000000000E+000  0.000000000000000E+000   3.51736000000000     
 Mg  B   
           9          18
 Cartesian
  0.000000000000000E+000  0.000000000000000E+000  0.000000000000000E+000
   3.08000000000000       0.000000000000000E+000  0.000000000000000E+000
   6.16000000000000       0.000000000000000E+000  0.000000000000000E+000
   9.24000000000000       0.000000000000000E+000  0.000000000000000E+000
   12.3200000000000       0.000000000000000E+000  0.000000000000000E+000
   15.4000000000000       0.000000000000000E+000  0.000000000000000E+000
   18.4800000000000       0.000000000000000E+000  0.000000000000000E+000
   21.5600000000000       0.000000000000000E+000  0.000000000000000E+000
   24.6400000000000       0.000000000000000E+000  0.000000000000000E+000
   1.54000000326795       0.889119000000000        1.75868000000000     
   4.61357212640668       0.889119000000000        1.75868000000000     
   7.69015192303742       0.889119000000000        1.75868000000000     
   10.7713397443279       0.889119000000000        1.75868000000000     
   13.8565797954951       0.889119000000000        1.75868000000000     
   16.9434201983615       0.889119000000000        1.75868000000000     
   20.0286602524033       0.889119000000000        1.75868000000000     
   23.1098480780978       0.889119000000000        1.75868000000000     
   26.1864278786015       0.889119000000000        1.75868000000000     
 -3.267948965381384E-009   1.77823900000000        1.75868000000000     
   3.08642787359332        1.77823900000000        1.75868000000000     
   6.16984807696258        1.77823900000000        1.75868000000000     
   9.24866025567212        1.77823900000000        1.75868000000000     
   12.3234202045049        1.77823900000000        1.75868000000000     
   15.3965798016385        1.77823900000000        1.75868000000000     
   18.4713397475967        1.77823900000000        1.75868000000000     
   21.5501519219022        1.77823900000000        1.75868000000000     
   24.6335721213985        1.77823900000000        1.75868000000000     
 
 
  0.000000000000000E+000  0.000000000000000E+000  0.000000000000000E+000
  0.000000000000000E+000  0.000000000000000E+000  0.000000000000000E+000
  0.000000000000000E+000  0.000000000000000E+000  0.000000000000000E+000
  0.000000000000000E+000  0.000000000000000E+000  0.000000000000000E+000
  0.000000000000000E+000  0.000000000000000E+000  0.000000000000000E+000
  0.000000000000000E+000  0.000000000000000E+000  0.000000000000000E+000
  0.000000000000000E+000  0.000000000000000E+000  0.000000000000000E+000
  0.000000000000000E+000  0.000000000000000E+000  0.000000000000000E+000
  0.000000000000000E+000  0.000000000000000E+000  0.000000000000000E+000
  3.267948965381384E-009  0.000000000000000E+000  0.000000000000000E+000
 -6.427873593318046E-003  0.000000000000000E+000  0.000000000000000E+000
 -9.848076962578873E-003  0.000000000000000E+000  0.000000000000000E+000
 -8.660255672117718E-003  0.000000000000000E+000  0.000000000000000E+000
 -3.420204504874061E-003  0.000000000000000E+000  0.000000000000000E+000
  3.420198361451445E-003  0.000000000000000E+000  0.000000000000000E+000
  8.660252403270818E-003  0.000000000000000E+000  0.000000000000000E+000
  9.848078097837488E-003  0.000000000000000E+000  0.000000000000000E+000
  6.427878601482049E-003  0.000000000000000E+000  0.000000000000000E+000
 -3.267948965381384E-009  0.000000000000000E+000  0.000000000000000E+000
  6.427873593318046E-003  0.000000000000000E+000  0.000000000000000E+000
  9.848076962578873E-003  0.000000000000000E+000  0.000000000000000E+000
  8.660255672117718E-003  0.000000000000000E+000  0.000000000000000E+000
  3.420204504874061E-003  0.000000000000000E+000  0.000000000000000E+000
 -3.420198361451445E-003  0.000000000000000E+000  0.000000000000000E+000
 -8.660252403270818E-003  0.000000000000000E+000  0.000000000000000E+000
 -9.848078097837488E-003  0.000000000000000E+000  0.000000000000000E+000
 -6.427878601482049E-003  0.000000000000000E+000  0.000000000000000E+000
 
 
  0.000000000000000E+000  0.000000000000000E+000  0.000000000000000E+000
  0.000000000000000E+000  0.000000000000000E+000  0.000000000000000E+000
  0.000000000000000E+000  0.000000000000000E+000  0.000000000000000E+000
  0.000000000000000E+000  0.000000000000000E+000  0.000000000000000E+000
  0.000000000000000E+000  0.000000000000000E+000  0.000000000000000E+000
  0.000000000000000E+000  0.000000000000000E+000  0.000000000000000E+000
  0.000000000000000E+000  0.000000000000000E+000  0.000000000000000E+000
  0.000000000000000E+000  0.000000000000000E+000  0.000000000000000E+000
  0.000000000000000E+000  0.000000000000000E+000  0.000000000000000E+000
  1.000000000000000E-002  0.000000000000000E+000  0.000000000000000E+000
  7.660444431318044E-003  0.000000000000000E+000  0.000000000000000E+000
  1.736481777062322E-003  0.000000000000000E+000  0.000000000000000E+000
 -4.999999999481579E-003  0.000000000000000E+000  0.000000000000000E+000
 -9.396926207586096E-003  0.000000000000000E+000  0.000000000000000E+000
 -9.396926208200320E-003  0.000000000000000E+000  0.000000000000000E+000
 -5.000000001036843E-003  0.000000000000000E+000  0.000000000000000E+000
  1.736481775293735E-003  0.000000000000000E+000  0.000000000000000E+000
  7.660444430163682E-003  0.000000000000000E+000  0.000000000000000E+000
 -1.000000000000000E-002  0.000000000000000E+000  0.000000000000000E+000
 -7.660444431318044E-003  0.000000000000000E+000  0.000000000000000E+000
 -1.736481777062322E-003  0.000000000000000E+000  0.000000000000000E+000
  4.999999999481579E-003  0.000000000000000E+000  0.000000000000000E+000
  9.396926207586096E-003  0.000000000000000E+000  0.000000000000000E+000
  9.396926208200320E-003  0.000000000000000E+000  0.000000000000000E+000
  5.000000001036843E-003  0.000000000000000E+000  0.000000000000000E+000
 -1.736481775293735E-003  0.000000000000000E+000  0.000000000000000E+000
 -7.660444430163682E-003  0.000000000000000E+000  0.000000000000000E+000
