 asdf
 1.0000
   27.7200000000000       0.000000000000000E+000  0.000000000000000E+000
   1.54000000000000        2.66735824370000       0.000000000000000E+000
  0.000000000000000E+000  0.000000000000000E+000   3.51736000000000     
 Mg  B   
           9          18
 Cartesian
  0.000000000000000E+000  0.000000000000000E+000  0.000000000000000E+000
   3.08000000000000       0.000000000000000E+000  0.000000000000000E+000
   6.16000000000000       0.000000000000000E+000  0.000000000000000E+000
   9.24000000000000       0.000000000000000E+000  0.000000000000000E+000
   12.3200000000000       0.000000000000000E+000  0.000000000000000E+000
   15.4000000000000       0.000000000000000E+000  0.000000000000000E+000
   18.4800000000000       0.000000000000000E+000  0.000000000000000E+000
   21.5600000000000       0.000000000000000E+000  0.000000000000000E+000
   24.6400000000000       0.000000000000000E+000  0.000000000000000E+000
   1.54000000000000       0.889119000000000        1.75868000000000     
   4.62000000000000       0.889119000000000        1.75868000000000     
   7.70000000000000       0.889119000000000        1.75868000000000     
   10.7800000000000       0.889119000000000        1.75868000000000     
   13.8600000000000       0.889119000000000        1.75868000000000     
   16.9400000000000       0.889119000000000        1.75868000000000     
   20.0200000000000       0.889119000000000        1.75868000000000     
   23.1000000000000       0.889119000000000        1.75868000000000     
   26.1800000000000       0.889119000000000        1.75868000000000     
  0.000000000000000E+000   1.77823900000000        1.75868000000000     
   3.08000000000000        1.77823900000000        1.75868000000000     
   6.16000000000000        1.77823900000000        1.75868000000000     
   9.24000000000000        1.77823900000000        1.75868000000000     
   12.3200000000000        1.77823900000000        1.75868000000000     
   15.4000000000000        1.77823900000000        1.75868000000000     
   18.4800000000000        1.77823900000000        1.75868000000000     
   21.5600000000000        1.77823900000000        1.75868000000000     
   24.6400000000000        1.77823900000000        1.75868000000000     
